(declare-fun var0 () String)
(declare-fun var1 () String)
(declare-fun var2 () String)
(declare-fun var3 () Int)
(declare-fun var4 () Int)
(declare-fun var5 () Int)
(declare-fun var6 () Bool)
(declare-fun var7 () Bool)
(declare-fun var8 () Bool)
(assert (not var6))
(assert (str.prefixof (str.replace var2 var2 var2) (str.substr var0 var4 var4)))
(assert (> (str.indexof var0 var2 var3) (str.indexof "[nvBNs_\\QA" var2 var3)))
(assert (str.in.re (str.substr var0 4 var5) (re.+ re.allchar)))
(check-sat)
